polythiophene                           
   1.00000000000000     
     9.0000000000000000    0.0000000000000000    0.0000000000000000
     0.0000000000000000    8.0000000000000000    0.0000000000000000
     0.0000000000000000    0.0000000000000000    8.0000000000000000
   8   4   2
Direct
  0.4094963891330105  0.5107726821962848  0.5107726821962848
  0.3299221341801198  0.6158428101940896  0.6158428101940896
  0.1700778658198802  0.6158428101940896  0.6158428101940896
  0.0905036108669896  0.5107726821962848  0.5107726821962848
  0.5905036108669895  0.4892273178037150  0.4892273178037150
  0.6700778658198802  0.3841571898059102  0.3841571898059102
  0.8299221341801198  0.3841571898059102  0.3841571898059102
  0.9094963891330105  0.4892273178037150  0.4892273178037150
  0.3871505286608045  0.7012530099125573  0.7012530099125573
  0.6128494713391957  0.2987469900874428  0.2987469900874428
  0.1128494713391955  0.7012530099125573  0.7012530099125573
  0.8871505286608043  0.2987469900874428  0.2987469900874428
  0.2500000000000000  0.4029569298550411  0.4029569298550411
  0.7500000000000000  0.5970430701449588  0.5970430701449588
 
  0.00000000E+00  0.00000000E+00  0.00000000E+00
  0.00000000E+00  0.00000000E+00  0.00000000E+00
  0.00000000E+00  0.00000000E+00  0.00000000E+00
  0.00000000E+00  0.00000000E+00  0.00000000E+00
  0.00000000E+00  0.00000000E+00  0.00000000E+00
  0.00000000E+00  0.00000000E+00  0.00000000E+00
  0.00000000E+00  0.00000000E+00  0.00000000E+00
  0.00000000E+00  0.00000000E+00  0.00000000E+00
  0.00000000E+00  0.00000000E+00  0.00000000E+00
  0.00000000E+00  0.00000000E+00  0.00000000E+00
  0.00000000E+00  0.00000000E+00  0.00000000E+00
  0.00000000E+00  0.00000000E+00  0.00000000E+00
  0.00000000E+00  0.00000000E+00  0.00000000E+00
  0.00000000E+00  0.00000000E+00  0.00000000E+00
