Co C O H                                 
   9.11758901098901     
     0.8186151600000000   -0.4256520799999999    0.0000000000000000
     0.0000000000000000    1.0000000000000000    0.0000000000000000
     0.0000000000000000    0.0000000000000000    2.2293841762382884
  48   2   2   2
Direct
  0.0663476386265634  0.2558654027454363  0.3381965915763310
  0.0517755778248672  0.7459416505539890  0.3399461088323275
  0.5605493803015122  0.2394276587684465  0.3378535596083569
  0.5693251893297642  0.7536790541358632  0.3363000817854609
  0.3482187046405936  0.3097306096228916  0.3887979310319615
  0.3407563896542728  0.8144981061704493  0.3895014757046325
  0.8380606025784612  0.3146988091070123  0.3881032250144034
  0.8389539451939189  0.8130083325001163  0.3910398856724648
  0.1153758899583796  0.3518876396157403  0.4548300742343114
  0.1166869332927068  0.8531129591930018  0.4552384002526433
  0.6158471191255288  0.3520019742583850  0.4559299915011653
  0.6141099958160202  0.8513311290131849  0.4546582955304052
  0.3900912890056402  0.3966047921751317  0.5151817948377128
  0.3870991036366008  0.8954055849936657  0.5166913404221821
  0.8859443674810087  0.3946809063115541  0.5167172524014687
  0.8869573762158073  0.8968721617428534  0.5153801164794379
  0.1619735084476233  0.4406031270602517  0.5716266517351447
  0.1601244981766337  0.9412977448051192  0.5750231774105914
  0.6623073415508699  0.4435017640656073  0.5794548050456916
  0.6604385224284181  0.9432547211826348  0.5749949720253125
  0.4146908076014237  0.4953748021933320  0.6353526254865076
  0.4229420795616632  0.9930210993745324  0.6355933320396173
  0.9368947397701417  0.4882129837886887  0.6347596144476513
  0.9308630199881586  0.9929633905645917  0.6346580530458839
  0.1354207427808811  0.0290071796706489  0.3653269549789718
  0.1290997218729305  0.5337838450414549  0.3652437390992750
  0.6432207173462456  0.0288164117904147  0.3643529587570082
  0.6513647511616854  0.5268713919052642  0.3646587805735083
  0.4058360410387504  0.0787983525160548  0.4250013574738130
  0.4037554804984232  0.5785442344532635  0.4205358316713308
  0.9060531669652691  0.0807822205549628  0.4250666988351099
  0.9040948853980094  0.5814931366936477  0.4283842603184718
  0.1792473942432053  0.1252686319089800  0.4846149758449204
  0.1801362005938522  0.6274108355737241  0.4832894200534694
  0.6789396410272469  0.1266546849327697  0.4833402063652126
  0.6761923281191980  0.6256597827929022  0.4848160819712467
  0.4518641066783861  0.1707378319956358  0.5453224571564508
  0.4502748771931103  0.6701386401349276  0.5440854650189944
  0.9493855435587258  0.1689772765815351  0.5447514537864585
  0.9508487627953399  0.6702212921013014  0.5451951875159811
  0.2268910117247779  0.2092945326884989  0.6088105377548454
  0.2280933623371548  0.7072392120724679  0.6120322836817914
  0.7250623099820911  0.2075362214563429  0.6104199654448524
  0.7179938659807905  0.7123821891117369  0.6111756208248779
  0.4960123127747628  0.2679095325307858  0.6636060306475968
  0.5060161758306766  0.7828960543710093  0.6622296557637314
  0.0138557683017970  0.2759001602969604  0.6600313739610087
 -0.0004748318300901  0.7659044406453239  0.6618515914289788
  0.7679390917849680  0.5626128420431687  0.6643953867399768
  0.2978143904166354  0.4591760772100568  0.3355823747030428
  0.6676027517496487  0.4834522576933002  0.7241949720553692
  0.3976950911839589  0.5380654684117321  0.2756554366730483
  0.7479056686609821  0.4592311111369959  0.7523138941519617
  0.3171985386760315  0.5627753245488530  0.2477613572456180
 
  0.00000000E+00  0.00000000E+00  0.00000000E+00
  0.00000000E+00  0.00000000E+00  0.00000000E+00
  0.00000000E+00  0.00000000E+00  0.00000000E+00
  0.00000000E+00  0.00000000E+00  0.00000000E+00
  0.00000000E+00  0.00000000E+00  0.00000000E+00
  0.00000000E+00  0.00000000E+00  0.00000000E+00
  0.00000000E+00  0.00000000E+00  0.00000000E+00
  0.00000000E+00  0.00000000E+00  0.00000000E+00
  0.00000000E+00  0.00000000E+00  0.00000000E+00
  0.00000000E+00  0.00000000E+00  0.00000000E+00
  0.00000000E+00  0.00000000E+00  0.00000000E+00
  0.00000000E+00  0.00000000E+00  0.00000000E+00
  0.00000000E+00  0.00000000E+00  0.00000000E+00
  0.00000000E+00  0.00000000E+00  0.00000000E+00
  0.00000000E+00  0.00000000E+00  0.00000000E+00
  0.00000000E+00  0.00000000E+00  0.00000000E+00
  0.00000000E+00  0.00000000E+00  0.00000000E+00
  0.00000000E+00  0.00000000E+00  0.00000000E+00
  0.00000000E+00  0.00000000E+00  0.00000000E+00
  0.00000000E+00  0.00000000E+00  0.00000000E+00
  0.00000000E+00  0.00000000E+00  0.00000000E+00
  0.00000000E+00  0.00000000E+00  0.00000000E+00
  0.00000000E+00  0.00000000E+00  0.00000000E+00
  0.00000000E+00  0.00000000E+00  0.00000000E+00
  0.00000000E+00  0.00000000E+00  0.00000000E+00
  0.00000000E+00  0.00000000E+00  0.00000000E+00
  0.00000000E+00  0.00000000E+00  0.00000000E+00
  0.00000000E+00  0.00000000E+00  0.00000000E+00
  0.00000000E+00  0.00000000E+00  0.00000000E+00
  0.00000000E+00  0.00000000E+00  0.00000000E+00
  0.00000000E+00  0.00000000E+00  0.00000000E+00
  0.00000000E+00  0.00000000E+00  0.00000000E+00
  0.00000000E+00  0.00000000E+00  0.00000000E+00
  0.00000000E+00  0.00000000E+00  0.00000000E+00
  0.00000000E+00  0.00000000E+00  0.00000000E+00
  0.00000000E+00  0.00000000E+00  0.00000000E+00
  0.00000000E+00  0.00000000E+00  0.00000000E+00
  0.00000000E+00  0.00000000E+00  0.00000000E+00
  0.00000000E+00  0.00000000E+00  0.00000000E+00
  0.00000000E+00  0.00000000E+00  0.00000000E+00
  0.00000000E+00  0.00000000E+00  0.00000000E+00
  0.00000000E+00  0.00000000E+00  0.00000000E+00
  0.00000000E+00  0.00000000E+00  0.00000000E+00
  0.00000000E+00  0.00000000E+00  0.00000000E+00
  0.00000000E+00  0.00000000E+00  0.00000000E+00
  0.00000000E+00  0.00000000E+00  0.00000000E+00
  0.00000000E+00  0.00000000E+00  0.00000000E+00
  0.00000000E+00  0.00000000E+00  0.00000000E+00
  0.00000000E+00  0.00000000E+00  0.00000000E+00
  0.00000000E+00  0.00000000E+00  0.00000000E+00
  0.00000000E+00  0.00000000E+00  0.00000000E+00
  0.00000000E+00  0.00000000E+00  0.00000000E+00
  0.00000000E+00  0.00000000E+00  0.00000000E+00
  0.00000000E+00  0.00000000E+00  0.00000000E+00
