Co_001_3x3_5L_1x1_15
   7.47990000000000
     0.8660253999999999    0.5000000000000000    0.0000000000000000
     0.0000000000000000    1.0000000000000000    0.0000000000000000
     0.0000000000000000    0.0000000000000000    3.0821802400000000
  45   1   1   1
Direct
   0.1131629210763434   0.1093212125207044   0.4119660507492589
   0.1131629210763434   0.1093212125207044   0.5880339492507412
   0.1122746639920038   0.4415279719887741   0.4124586924902887
   0.1122746639920038   0.4415279719887741   0.5875413075097113
   0.1129023084644256   0.7768156914975130   0.4130964095129316
   0.1129023084644256   0.7768156914975130   0.5869035904870683
   0.4467503859845090   0.1094793706208852   0.4115093582214067
   0.4467503859845090   0.1094793706208852   0.5884906417785934
   0.4449744863625331   0.4427828351475938   0.4106687751520067
   0.4449744863625331   0.4427828351475938   0.5893312248479934
   0.4458516822747809   0.7739785045076256   0.4119979907523595
   0.4458516822747809   0.7739785045076256   0.5880020092476402
   0.7774677276836112   0.1096728713647170   0.4118950246392044
   0.7774677276836112   0.1096728713647170   0.5881049753607958
   0.7762884547556522   0.4433498803558407   0.4117434275077866
   0.7762884547556522   0.4433498803558407   0.5882565724922134
   0.7792202925452555   0.7752590678064403   0.4124803166242477
   0.7792202925452555   0.7752590678064403   0.5875196833757530
   0.2243886465279397   0.2194959606633273   0.3270601699856641
   0.2239711600811132   0.2193895467792264   0.5000000000000000
   0.2243886465279397   0.2194959606633273   0.6729398300143357
   0.2138630417052321   0.5573172891663836   0.3254910637778055
   0.2234997282414617   0.5530269188792269   0.5000000000000000
   0.2138630417052321   0.5573172891663836   0.6745089362221939
   0.2234513674812590   0.8853771485951482   0.3275655476545403
   0.2237834457932513   0.8873240568621069   0.5000000000000000
   0.2234513674812590   0.8853771485951482   0.6724344523454596
   0.5589904904159240   0.2147076074744554   0.3223821963102143
   0.5558477934361528   0.2207031300892810   0.5000000000000000
   0.5589904904159240   0.2147076074744554   0.6776178036897853
   0.5593559066601745   0.5544325693042409   0.3228854033143417
   0.5555212770622746   0.5523489879036112   0.5000000000000000
   0.5593559066601745   0.5544325693042409   0.6771145966856581
   0.5582836892590097   0.8848492837303155   0.3279375943189227
   0.5556234654600387   0.8872694721272839   0.5000000000000000
   0.5582836892590097   0.8848492837303155   0.6720624056810773
   0.8960698558572392   0.2155804699494182   0.3284278453100528
   0.8899421755676179   0.2198329130726160   0.5000000000000000
   0.8960698558572392   0.2155804699494182   0.6715721546899469
   0.8894733670120322   0.5535458751884028   0.3283888135681136
   0.8899140584640380   0.5524140228214041   0.5000000000000000
   0.8894733670120322   0.5535458751884028   0.6716111864318860
   0.8914662503594711   0.8838322363524600   0.3280948990497081
   0.8898273508257916   0.8869684483256329   0.5000000000000000
   0.8914662503594711   0.8838322363524600   0.6719051009502915
   0.3616592402275933   0.4136229887905680   0.7400052982046494
   0.5428758744869593   0.4013719054782823   0.7484344292557609
   0.2981269333521692   0.3767861787166926   0.7785815393652349
