Co_001_3x3_5L_1x1_15
   7.47990000000000
     0.8660253999999999    0.5000000000000000    0.0000000000000000
     0.0000000000000000    1.0000000000000000    0.0000000000000000
     0.0000000000000000    0.0000000000000000    3.0821802400000000
  45   2   2   2
Direct
   0.4458869592119222   0.4419257344731069   0.4124803166242477
   0.4458869592119222   0.4419257344731069   0.5875196833757530
   0.4441343943502778   0.7763395380313836   0.4118950246392044
   0.4441343943502778   0.7763395380313836   0.5881049753607958
   0.4429551214223189   0.1100165470225072   0.4117434275077866
   0.4429551214223189   0.1100165470225072   0.5882565724922134
   0.7795689751310924   0.4434823581641796   0.4130964095129316
   0.7795689751310924   0.4434823581641796   0.5869035904870683
   0.7798295877430101   0.7759878791873711   0.4119660507492589
   0.7798295877430101   0.7759878791873711   0.5880339492507412
   0.7789413306586704   0.1081946386554409   0.4124586924902887
   0.7789413306586704   0.1081946386554409   0.5875413075097113
   0.1125183489414474   0.4406451711742923   0.4119979907523595
   0.1125183489414474   0.4406451711742923   0.5880020092476402
   0.1134170526511755   0.7761460372875519   0.4115093582214067
   0.1134170526511755   0.7761460372875519   0.5884906417785934
   0.1116411530291996   0.1094495018142605   0.4106687751520067
   0.1116411530291996   0.1094495018142605   0.5893312248479934
   0.5581329170261378   0.5504989030191266   0.3280948990497081
   0.5564940174924582   0.5536351149922996   0.5000000000000000
   0.5581329170261378   0.5504989030191266   0.6719051009502915
   0.5627365225239059   0.8822471366160849   0.3284278453100528
   0.5566088422342846   0.8864995797392825   0.5000000000000000
   0.5627365225239059   0.8822471366160849   0.6715721546899469
   0.5561400336786988   0.2202125418550696   0.3283888135681136
   0.5565807251307047   0.2190806894880708   0.5000000000000000
   0.5561400336786988   0.2202125418550696   0.6716111864318860
   0.8901180341479258   0.5520438152618148   0.3275655476545403
   0.8904501124599180   0.5539907235287737   0.5000000000000000
   0.8901180341479258   0.5520438152618148   0.6724344523454596
   0.8910553131946064   0.8861626273299941   0.3270601699856641
   0.8906378267477799   0.8860562134458931   0.5000000000000000
   0.8910553131946064   0.8861626273299941   0.6729398300143357
   0.8805297083718988   0.2239839558330503   0.3254910637778055
   0.8901663949081282   0.2196935855458937   0.5000000000000000
   0.8805297083718988   0.2239839558330503   0.6745089362221939
   0.2249503559256762   0.5515159503969822   0.3279375943189227
   0.2222901321267055   0.5539361387939506   0.5000000000000000
   0.2249503559256762   0.5515159503969822   0.6720624056810773
   0.2256571570825905   0.8813742741411221   0.3223821963102143
   0.2225144601028193   0.8873697967559475   0.5000000000000000
   0.2256571570825905   0.8813742741411221   0.6776178036897853
   0.2260225733268413   0.2210992359709074   0.3228854033143417
   0.2221879437289414   0.2190156545702777   0.5000000000000000
   0.2260225733268413   0.2210992359709074   0.6771145966856581
   0.0283259068942601   0.0802896554572348   0.7400052982046494
   0.0283259068942601   0.0802896554572348   0.2599947017953501
   0.2095425411536258   0.0680385721449488   0.7484344292557609
   0.2095425411536258   0.0680385721449488   0.2515655707442391
   0.9647936000188357   0.0434528453833594   0.7785815393652349
   0.9647936000188357   0.0434528453833594   0.2214184606347654
