Co_001_3x3_5L_1x1_15
   7.47990000000000
     0.8660253999999999    0.5000000000000000    0.0000000000000000
     0.0000000000000000    1.0000000000000000    0.0000000000000000
     0.0000000000000000    0.0000000000000000    3.0821802400000000
  45   2   2   2
Direct
  0.1125536258785889  0.1085924011397736  0.4124803166242477
  0.1125536258785889  0.1085924011397736  0.5875196833757530
  0.1108010610169445  0.4430062046980503  0.4118950246392044
  0.1108010610169445  0.4430062046980503  0.5881049753607958
  0.1096217880889856  0.7766832136891739  0.4117434275077866
  0.1096217880889856  0.7766832136891739  0.5882565724922134
  0.4462356417977591  0.1101490248308463  0.4130964095129316
  0.4462356417977591  0.1101490248308463  0.5869035904870683
  0.4464962544096768  0.4426545458540378  0.4119660507492589
  0.4464962544096768  0.4426545458540378  0.5880339492507412
  0.4456079973253371  0.7748613053221075  0.4124586924902887
  0.4456079973253371  0.7748613053221075  0.5875413075097113
  0.7791850156081142  0.1073118378409590  0.4119979907523595
  0.7791850156081142  0.1073118378409590  0.5880020092476402
  0.7800837193178423  0.4428127039542186  0.4115093582214067
  0.7800837193178423  0.4428127039542186  0.5884906417785934
  0.7783078196958664  0.7761161684809271  0.4106687751520067
  0.7783078196958664  0.7761161684809271  0.5893312248479934
  0.2247995836928045  0.2171655696857933  0.3280948990497081
  0.2231606841591249  0.2203017816589663  0.5000000000000000
  0.2247995836928045  0.2171655696857933  0.6719051009502915
  0.2294031891905726  0.5489138032827515  0.3284278453100528
  0.2232755089009513  0.5531662464059492  0.5000000000000000
  0.2294031891905726  0.5489138032827515  0.6715721546899469
  0.2228067003453655  0.8868792085217363  0.3283888135681136
  0.2232473917973714  0.8857473561547375  0.5000000000000000
  0.2228067003453655  0.8868792085217363  0.6716111864318860
  0.5567847008145925  0.2187104819284815  0.3275655476545403
  0.5571167791265847  0.2206573901954403  0.5000000000000000
  0.5567847008145925  0.2187104819284815  0.6724344523454596
  0.5577219798612730  0.5528292939966608  0.3270601699856641
  0.5573044934144465  0.5527228801125599  0.5000000000000000
  0.5577219798612730  0.5528292939966608  0.6729398300143357
  0.5471963750385654  0.8906506224997170  0.3254910637778055
  0.5568330615747950  0.8863602522125604  0.5000000000000000
  0.5471963750385654  0.8906506224997170  0.6745089362221939
  0.8916170225923430  0.2181826170636489  0.3279375943189227
  0.8889567987933722  0.2206028054606173  0.5000000000000000
  0.8916170225923430  0.2181826170636489  0.6720624056810773
  0.8923238237492572  0.5480409408077889  0.3223821963102143
  0.8891811267694860  0.5540364634226143  0.5000000000000000
  0.8923238237492572  0.5480409408077889  0.6776178036897853
  0.8926892399935080  0.8877659026375742  0.3228854033143417
  0.8888546103956081  0.8856823212369445  0.5000000000000000
  0.8926892399935080  0.8877659026375742  0.6771145966856581
  0.6949925735609268  0.7469563221239014  0.7400052982046494
  0.6949925735609268  0.7469563221239014  0.2599947017953501
  0.8762092078202925  0.7347052388116155  0.7484344292557609
  0.8762092078202925  0.7347052388116155  0.2515655707442391
  0.6314602666855025  0.7101195120500261  0.7785815393652349
  0.6314602666855025  0.7101195120500261  0.2214184606347654
