Co_001_3x3_5L_1x1_49                    
   7.47990000000000     
     0.8660253999999999    0.5000000000000000    0.0000000000000000
     0.0000000000000000    1.0000000000000000    0.0000000000000000
     0.0000000000000000    0.0000000000000000    3.0821802400000000
  45   2   2
Selective Dynamics
Direct
  0.1110883021023776  0.1110883021023776  0.4115178512015720 F F F
  0.1110883021023776  0.1110883021023776  0.5884821487984280 F F F
  0.1118392647531498  0.4431952619928200  0.4121876769542752 F F F
  0.1118392647531498  0.4431952619928200  0.5878123230457247 F F F
  0.1118280908102226  0.7783016177139825  0.4121842037474068 F F F
  0.1118280908102226  0.7783016177139825  0.5878157962525862 F F F
  0.4431952619928200  0.1118392647531498  0.4121876769542752 F F F
  0.4431952619928200  0.1118392647531498  0.5878123230457247 F F F
  0.4444463508381832  0.4444463508381832  0.4125899731728540 F F F
  0.4444463508381832  0.4444463508381832  0.5874100268271460 F F F
  0.4431558917929571  0.7782955578614060  0.4121863332846595 F F F
  0.4431558917929571  0.7782955578614060  0.5878136667153405 F F F
  0.7783016177139825  0.1118280908102226  0.4121842037474068 F F F
  0.7783016177139825  0.1118280908102226  0.5878157962525862 F F F
  0.7782955578614060  0.4431558917929571  0.4121863332846595 F F F
  0.7782955578614060  0.4431558917929571  0.5878136667153405 F F F
  0.7777947205402793  0.7777947205402793  0.4122744744104615 F F F
  0.7777947205402793  0.7777947205402793  0.5877255255895385 F F F
  0.2214471910204436  0.2214471910204436  0.3272399463171274 F F F
  0.2219490662544358  0.2219490662544358  0.5000000000000000 F F F
  0.2214471910204436  0.2214471910204436  0.6727600536828726 F F F
  0.2159952868623856  0.5586996081426254  0.3249187352737399 F F F
  0.2218996121685042  0.5557559866034333  0.5000000000000000 F F F
  0.2159952868623856  0.5586996081426254  0.6750812647262602 F F F
  0.2214444317853023  0.8903923495762641  0.3272396883818847 F F F
  0.2219357141280104  0.8894046756396240  0.5000000000000000 F F F
  0.2214444317853023  0.8903923495762641  0.6727603116181153 F F F
  0.5586996081426254  0.2159952868623856  0.3249187352737399 F F F
  0.5557559866034333  0.2218996121685042  0.5000000000000000 F F F
  0.5586996081426254  0.2159952868623856  0.6750812647262602 F F F
  0.5587051432265240  0.5587051432265240  0.3249206683405766 F F F
  0.5556974349398242  0.5556974349398242  0.5000000000000000 F F F
  0.5587051432265240  0.5587051432265240  0.6750793316594234 F F F
  0.5557417705089606  0.8888135066225713  0.3277536030552500 F F F
  0.5553704809237303  0.8889910247938184  0.5000000000000000 F F F
  0.5557417705089606  0.8888135066225713  0.6722463969447500 F F F
  0.8903923495762641  0.2214444317853023  0.3272396883818847 F F F
  0.8894046756396240  0.2219357141280104  0.5000000000000000 F F F
  0.8903923495762641  0.2214444317853023  0.6727603116181153 F F F
  0.8888135066225713  0.5557417705089606  0.3277536030552500 F F F
  0.8889910247938184  0.5553704809237303  0.5000000000000000 F F F
  0.8888135066225713  0.5557417705089606  0.6722463969447500 F F F
  0.8888165286991241  0.8888165286991241  0.3277534246259353 F F F
  0.8889975611949419  0.8889975611949419  0.5000000000000000 F F F
  0.8888165286991241  0.8888165286991241  0.6722465753740648 F F F
  0.4444552917391743  0.4444552917391743  0.7241001235714578 T T T
  0.4444552917391743  0.4444552917391743  0.2758998764285420 T T T
  0.4444537811380888  0.4444537811380888  0.7719662141540754 T T T
  0.4444537811380888  0.4444537811380888  0.2280337858459247 T T T
